Route #1: 89 6 94 95 59 92 37 42 87 97 13 2 73 74 72 21 54 80 68 12 26 40 58 53 28 27
Route #2: 60 84 5 99 96 93 85 98 100 43 15 57 41 22 75 56 23 39 4 25 55 24 29 79 3 77 76 50 1
Route #3: 33 81 78 34 35 65 71 9 51 69 52 7 48 46 8 82 18 83 45 17 61 16 91 44 86 38 14 67
Route #4: 31 70 30 20 66 32 90 63 64 49 36 47 19 11 62 10 88
Cost 874
